!XTB2 opt
%pal
nprocs 4
end
* xyz 0 1
C     -1.087100    0.000000   -2.898300
C     -0.861700    1.295500   -2.102900
C     -1.537800    1.235300   -0.724200
C     -1.087100    0.000000    0.071200
C     -1.312500   -1.295500   -0.724200
C     -0.636300   -1.235300   -2.102900
H     -0.559500    0.047000   -3.858700
H     -2.156600   -0.095200   -3.135300
H     -1.231000    2.158700   -2.669900
H      0.218400    1.451300   -1.967500
H     -1.326900    2.150100   -0.157200
H     -2.628400    1.197800   -0.859600
H     -1.614700   -0.047000    1.031600
H     -0.017500    0.095200    0.308200
H     -0.943200   -2.158700   -0.157200
H     -0.847300   -2.150100   -2.669900
H      0.454300   -1.197800   -1.967500
C     -2.825100   -1.513700   -0.913800
H     -3.088800   -1.579000   -1.975600
H     -3.157900   -2.440800   -0.433400
H     -3.404400   -0.690800   -0.479900
END
